p cnf 183 641
1 -2 0
2 -1 0
3 -4 0
4 -3 0
5 -6 0
6 -5 0
7 -8 0
8 -7 0
9 -10 0
10 -9 0
11 -12 0
12 -11 0
13 -14 0
14 -13 0
15 -16 0
16 -15 0
17 -18 0
18 -17 0
19 -20 0
-19 20 0
21 -22 0
22 -21 0
23 -24 0
24 -23 0
25 -26 0
26 -25 0
27 -28 0
28 -27 0
29 -30 0
30 -29 0
31 -32 0
32 -31 0
33 -34 0
34 -33 0
35 -36 0
36 -35 0
37 -38 0
38 -37 0
39 -40 0
-39 40 0
41 -42 0
42 -41 0
43 -44 0
44 -43 0
45 -46 0
46 -45 0
47 -48 0
48 -47 0
49 -50 0
50 -49 0
51 -52 0
52 -51 0
53 -54 0
54 -53 0
55 -56 0
56 -55 0
57 -58 0
58 -57 0
59 -60 0
-59 60 0
-19 -39 0
61 -23 0
61 -21 0
-61 23 21 0
-25 62 0
-61 62 0
25 61 -62 0
63 -27 0
63 -62 0
27 62 -63 0
64 -29 0
-63 64 0
29 63 -64 0
-31 65 0
65 -64 0
31 64 -65 0
66 -33 0
66 -65 0
33 65 -66 0
66 -67 -35 0
35 -67 -66 0
-35 67 -66 0
66 35 67 0
-31 64 -68 0
-68 -64 31 0
-31 68 -64 0
64 68 31 0
-23 -69 21 0
-21 -69 23 0
69 -21 -23 0
69 23 21 0
-23 -70 21 0
-21 -70 23 0
70 -21 -23 0
70 23 21 0
71 70 -21 0
70 71 0
71 -21 0
-70 21 -71 0
-72 61 -25 0
-72 -61 25 0
72 -25 -61 0
61 72 25 0
61 -73 -25 0
-73 -61 25 0
-25 -61 73 0
61 73 25 0
70 -21 74 0
70 74 0
-21 74 0
-74 -70 21 0
-74 75 0
73 75 0
-74 73 75 0
-73 -75 74 0
-76 62 -27 0
-62 -76 27 0
76 -62 -27 0
76 62 27 0
-74 77 0
73 77 0
-74 77 73 0
-73 -77 74 0
-78 62 -27 0
-62 -78 27 0
78 -62 -27 0
78 62 27 0
78 79 0
79 78 -77 0
79 -77 0
-78 77 -79 0
78 80 0
78 80 -77 0
80 -77 0
-80 -78 77 0
63 -29 -81 0
-63 29 -81 0
-63 -29 81 0
63 81 29 0
63 -82 -29 0
-63 -82 29 0
-63 82 -29 0
82 63 29 0
82 83 0
82 -80 83 0
-80 83 0
-83 -82 80 0
83 84 0
-68 84 0
-83 68 -84 0
-33 65 -85 0
-65 33 -85 0
-33 -65 85 0
65 85 33 0
86 -85 0
-84 86 0
85 84 -86 0
-87 15 86 67 0
-87 -67 86 -15 0
-87 -86 -15 67 0
-87 15 -67 -86 0
-67 87 -86 -15 0
15 87 -86 67 0
15 -67 87 86 0
87 86 -15 67 0
-87 0
55 88 0
35 88 0
-55 -88 -35 0
53 89 0
33 89 0
-53 -33 -89 0
29 90 0
49 90 0
-29 -49 -90 0
23 91 0
43 91 0
-23 -43 -91 0
21 92 0
41 92 0
-21 -41 -92 0
43 93 0
-92 93 0
92 -93 -43 0
23 94 0
-92 94 0
-23 -94 92 0
45 95 0
-91 -94 -93 95 0
-45 94 -95 0
-45 93 -95 0
-45 91 -95 0
25 96 0
-91 -94 -93 96 0
-96 94 -25 0
-96 -25 93 0
-96 -25 91 0
45 97 0
25 97 0
-45 -25 -97 0
27 98 0
-96 98 -97 -95 0
-98 97 -27 0
96 -98 -27 0
95 -98 -27 0
47 99 0
27 99 0
-99 -47 -27 0
47 100 0
-96 100 -97 -95 0
-100 -47 97 0
-100 -47 96 0
-100 -47 95 0
49 101 0
-99 101 -100 -98 0
100 -101 -49 0
-101 -49 99 0
98 -101 -49 0
29 102 0
-99 102 -100 -98 0
-102 -29 100 0
-102 -29 99 0
-102 98 -29 0
51 103 0
-102 103 -101 -90 0
-51 -103 102 0
-51 -103 101 0
-51 -103 90 0
31 104 0
-102 104 -101 -90 0
-31 102 -104 0
-31 101 -104 0
-31 90 -104 0
31 105 0
51 105 0
-31 -51 -105 0
33 106 0
-103 -105 106 -104 0
-33 -106 105 0
-33 104 -106 0
-33 103 -106 0
53 107 0
-103 -105 107 -104 0
-53 -107 105 0
-53 -107 104 0
-53 -107 103 0
35 108 0
-107 108 -89 -106 0
-108 -35 107 0
-108 106 -35 0
-108 -35 89 0
55 109 0
-107 -89 -106 109 0
-55 -109 107 0
-55 -109 106 0
-55 -109 89 0
37 110 0
-108 -109 -88 110 0
-110 -37 109 0
108 -110 -37 0
88 -110 -37 0
57 111 0
-108 -109 111 -88 0
-111 -57 109 0
-111 -57 108 0
-111 -57 88 0
57 112 0
37 112 0
-57 -112 -37 0
-59 112 0
-59 111 0
-59 110 0
21 -41 0
41 -21 0
-19 0
-39 0
-59 0
33 113 0
13 113 0
-33 -13 -113 0
7 114 0
27 114 0
-7 -27 -114 0
21 115 0
1 115 0
-21 -115 -1 0
23 116 0
-115 116 0
-23 -116 115 0
3 117 0
23 117 0
-3 -23 -117 0
3 118 0
118 -115 0
-3 -118 115 0
5 119 0
-118 -117 -116 119 0
-119 -5 118 0
117 -119 -5 0
-119 -5 116 0
25 120 0
-118 -117 -116 120 0
118 -25 -120 0
117 -25 -120 0
-25 -120 116 0
5 121 0
25 121 0
-5 -25 -121 0
27 122 0
-121 -119 -120 122 0
121 -122 -27 0
-122 -27 120 0
-122 119 -27 0
7 123 0
-121 -119 123 -120 0
-7 121 -123 0
-7 -123 120 0
-7 -123 119 0
9 124 0
124 -122 -123 -114 0
-9 123 -124 0
-9 -124 122 0
-9 -124 114 0
9 125 0
29 125 0
-9 -29 -125 0
29 126 0
-122 -123 126 -114 0
-126 123 -29 0
-126 -29 122 0
-126 -29 114 0
11 127 0
-126 127 -124 -125 0
-127 126 -11 0
125 -127 -11 0
124 -127 -11 0
31 128 0
-126 128 -124 -125 0
-31 -128 126 0
-31 125 -128 0
124 -31 -128 0
31 129 0
11 129 0
-31 -129 -11 0
33 130 0
-128 -127 -129 130 0
-33 -130 129 0
-33 128 -130 0
127 -33 -130 0
13 131 0
-128 -127 131 -129 0
129 -131 -13 0
128 -131 -13 0
127 -131 -13 0
35 132 0
-130 -131 132 -113 0
131 -132 -35 0
130 -132 -35 0
-132 113 -35 0
15 133 0
-130 -131 133 -113 0
131 -133 -15 0
130 -133 -15 0
-133 113 -15 0
35 134 0
15 134 0
-134 -35 -15 0
37 135 0
-133 -132 -134 135 0
-135 134 -37 0
-135 133 -37 0
-135 132 -37 0
17 136 0
136 -133 -132 -134 0
-17 -136 134 0
-17 -136 133 0
-17 -136 132 0
17 137 0
37 137 0
-17 -37 -137 0
137 -19 0
136 -19 0
-19 135 0
137 -39 0
136 -39 0
135 -39 0
-138 21 -1 0
1 -21 -138 0
138 -21 -1 0
1 138 21 0
-138 0
139 -35 0
139 -66 0
35 66 -139 0
139 -140 -37 0
37 -139 -140 0
-139 140 -37 0
37 139 140 0
141 -67 0
141 -86 0
67 86 -141 0
141 -142 17 140 0
141 -142 -17 -140 0
-142 -17 -141 140 0
-142 17 -141 -140 0
-17 142 -141 -140 0
17 142 -141 140 0
141 17 142 -140 0
141 -17 142 140 0
-142 0
11 68 83 0
11 -68 -83 0
-83 68 -11 0
-68 -11 83 0
143 -37 0
-139 143 0
37 139 -143 0
143 -144 -39 0
-144 -143 39 0
144 -143 -39 0
143 144 39 0
145 -140 0
145 -141 0
140 141 -145 0
19 145 144 0
19 -144 -145 0
145 -144 -19 0
144 -19 -145 0
-146 5 73 74 0
-146 -5 -74 73 0
-146 -5 -73 74 0
-146 -73 5 -74 0
146 -5 -73 -74 0
146 -73 5 74 0
146 5 -74 73 0
146 -5 73 74 0
-146 0
82 -147 80 9 0
82 -80 -9 -147 0
-82 -9 -147 80 0
-80 -82 -147 9 0
-80 -82 -9 147 0
-82 147 80 9 0
82 -80 147 9 0
82 -9 147 80 0
-147 0
13 85 84 -148 0
84 -148 -13 -85 0
85 -84 -148 -13 0
13 -84 -148 -85 0
148 -84 -13 -85 0
148 13 85 -84 0
148 13 84 -85 0
148 85 84 -13 0
-148 0
70 -149 3 21 0
-3 70 -149 -21 0
-3 -149 -70 21 0
-149 -21 -70 3 0
-3 -21 -70 149 0
-70 3 149 21 0
70 -21 3 149 0
-3 70 149 21 0
-149 0
78 -150 7 77 0
-7 78 -150 -77 0
-7 -150 -78 77 0
-150 7 -78 -77 0
-7 150 -78 -77 0
150 7 -78 77 0
150 78 7 -77 0
-7 150 78 77 0
-150 0
112 -39 0
111 -39 0
-39 110 0
-59 -39 0
151 -41 0
151 -43 0
41 43 -151 0
-45 152 0
152 -151 0
45 151 -152 0
-153 152 -47 0
47 -153 -152 0
153 -47 -152 0
47 153 152 0
27 -153 0
153 -27 0
154 -47 0
154 -152 0
47 152 -154 0
155 -49 0
155 -154 0
49 154 -155 0
-51 156 0
156 -155 0
51 155 -156 0
-53 157 0
-156 157 0
53 156 -157 0
-55 -158 157 0
55 -158 -157 0
-55 -157 158 0
55 158 157 0
-55 -159 157 0
55 -157 -159 0
159 -55 -157 0
159 55 157 0
-53 156 -160 0
-156 -160 53 0
-156 -53 160 0
156 160 53 0
154 -49 -161 0
-154 49 -161 0
161 -154 -49 0
161 49 154 0
-162 154 -49 0
-162 -154 49 0
162 -154 -49 0
162 49 154 0
153 163 0
162 163 0
153 162 163 0
-162 -163 -153 0
153 164 0
162 164 0
153 162 164 0
-162 -153 -164 0
-51 155 -165 0
51 -155 -165 0
-51 165 -155 0
51 155 165 0
-51 155 -166 0
51 -155 -166 0
-51 -155 166 0
51 155 166 0
166 167 0
166 167 -164 0
167 -164 0
-167 164 -166 0
166 168 0
168 166 -164 0
168 -164 0
164 -168 -166 0
-53 156 -169 0
-156 -169 53 0
-156 -53 169 0
156 169 53 0
169 170 -168 0
170 -168 0
169 170 0
-170 -169 168 0
169 171 -168 0
171 -168 0
169 171 0
-171 -169 168 0
172 -171 0
159 172 -171 0
159 172 0
-172 -159 171 0
173 -55 0
173 -157 0
55 157 -173 0
-57 173 -174 0
-173 57 -174 0
-57 -173 174 0
173 174 57 0
37 172 174 -175 0
-172 174 -175 -37 0
172 -175 -37 -174 0
-172 37 -175 -174 0
-172 175 -37 -174 0
37 172 175 -174 0
-172 37 174 175 0
172 174 175 -37 0
-175 0
45 -176 151 25 0
-45 -176 151 -25 0
45 -176 -151 -25 0
-45 -176 -151 25 0
-45 176 -151 -25 0
45 176 -151 25 0
-45 176 151 25 0
45 176 151 -25 0
-176 0
29 153 162 0
29 -153 -162 0
-162 153 -29 0
-153 162 -29 0
-172 177 0
174 177 0
-172 174 177 0
172 -177 -174 0
-57 178 0
-173 178 0
57 173 -178 0
-59 -179 178 0
-179 59 -178 0
-59 179 -178 0
179 59 178 0
179 177 39 0
-177 -179 39 0
-177 179 -39 0
-179 -39 177 0
41 -180 23 43 0
41 -23 -180 -43 0
-23 -180 -41 43 0
-180 -43 -41 23 0
-23 180 -43 -41 0
180 -41 23 43 0
41 180 -43 23 0
41 -23 180 43 0
-180 0
166 164 -181 31 0
-31 166 -164 -181 0
-31 164 -166 -181 0
-166 -164 -181 31 0
-31 181 -166 -164 0
164 181 -166 31 0
166 181 -164 31 0
-31 166 164 181 0
-181 0
169 168 -182 33 0
-33 169 -182 -168 0
-33 -169 168 -182 0
-169 -182 33 -168 0
-33 -169 182 -168 0
-169 168 182 33 0
169 182 33 -168 0
-33 169 168 182 0
-182 0
-183 159 35 171 0
-183 159 -171 -35 0
-183 -159 171 -35 0
-183 -171 -159 35 0
-171 -159 -35 183 0
-159 35 171 183 0
159 -171 35 183 0
159 171 -35 183 0
-183 0
